(set-info :status unknown)
(declare-fun %Y () (_ BitVec 10))
(declare-fun %X () (_ BitVec 10))
(assert
 (let (($x1874 (and (distinct (bvurem ((_ zero_extend 31) %X) ((_ zero_extend 31) %Y)) ((_ zero_extend 31) (bvurem %X %Y))) true)))
 (and (and (distinct ((_ zero_extend 31) %Y) (_ bv0 41)) true) $x1874)))
(check-sat)
